p tw 65 72
1 2
2 13
3 4
3 28
4 5
5 6
6 7
7 8
8 9
8 22
9 10
9 12
10 11
11 18
12 14
13 24
14 15
15 16
16 17
17 18
18 19
19 20
20 21
21 61
22 23
23 25
24 35
25 26
26 27
27 35
28 29
29 30
30 31
31 32
32 33
33 34
33 36
34 61
35 46
36 37
37 38
38 39
39 40
39 47
40 41
41 42
42 43
43 44
43 35
44 45
45 35
46 57
47 48
48 49
49 50
50 51
51 52
51 58
52 53
53 54
54 55
55 56
56 35
57 63
58 59
59 60
60 61
61 62
63 64
63 28
64 65
65 3
